Version identifier: 22.1.1.0 | 2022-11-28 | 9160aff4d
CPXPARAM_ClockType                               1
CPXPARAM_Read_DataCheck                          1
CPXPARAM_Threads                                 1
CPXPARAM_TimeLimit                               7200
CPXPARAM_MIP_Tolerances_AbsMIPGap                0
CPXPARAM_MIP_Tolerances_MIPGap                   0
CPXPARAM_MIP_Tolerances_Integrality              0
Tried aggregator 5 times.
MIP Presolve eliminated 12495 rows and 3491 columns.
MIP Presolve modified 478 coefficients.
Aggregator did 1148 substitutions.
Reduced MIP has 5256 rows, 3041 columns, and 16976 nonzeros.
Reduced MIP has 3041 binaries, 0 generals, 0 SOSs, and 0 indicators.
Presolve time = 0.04 sec. (33.32 ticks)
Found incumbent of value 152.000000 after 0.08 sec. (51.03 ticks)
Probing time = 0.01 sec. (2.89 ticks)
Tried aggregator 1 time.
Detecting symmetries...
Reduced MIP has 5256 rows, 3041 columns, and 16976 nonzeros.
Reduced MIP has 3041 binaries, 0 generals, 0 SOSs, and 0 indicators.
Presolve time = 0.02 sec. (12.09 ticks)
Probing time = 0.01 sec. (2.79 ticks)
Clique table members: 9480.
MIP emphasis: balance optimality and feasibility.
MIP search method: dynamic search.
Parallel mode: none, using 1 thread.
Root relaxation solution time = 0.08 sec. (61.07 ticks)

        Nodes                                         Cuts/
   Node  Left     Objective  IInf  Best Integer    Best Bound    ItCnt     Gap

*     0+    0                          152.0000     4060.0000              --- 
      0     0     1218.0000   650      152.0000     1218.0000     1161  701.32%
*     0+    0                          156.0000     1218.0000           680.77%
      0     0     1218.0000   877      156.0000     Cuts: 348     2291  680.77%
      0     0     1218.0000   390      156.0000       Cuts: 3     2324  680.77%
      0     0     1218.0000   381      156.0000      Cuts: 96     2368  680.77%
*     0+    0                          164.0000     1218.0000           642.68%
*     0+    0                          178.0000     1218.0000           584.27%
*     0+    0                          230.0000     1218.0000           429.57%
      0     0        cutoff            230.0000     1218.0000     2368  429.57%
      0     0     1218.0000   337      230.0000  ZeroHalf: 27     2407  429.57%
      0     0     1218.0000   325      230.0000  ZeroHalf: 86     2425  429.57%
Detecting symmetries...
      0     0     1218.0000   304      230.0000  ZeroHalf: 19     2490  429.57%
      0     0     1218.0000   230      230.0000  ZeroHalf: 78     2529  429.57%
*     0+    0                         1210.0000     1218.0000             0.66%
      0     0     1218.0000   365     1210.0000  ZeroHalf: 18     2635    0.66%
*     0+    0                         1218.0000     1218.0000             0.00%
      0     0        cutoff           1218.0000     1218.0000     2635    0.00%
Elapsed time = 1.75 sec. (1204.28 ticks, tree = 0.01 MB, solutions = 7)

GUB cover cuts applied:  1
Clique cuts applied:  27
Implied bound cuts applied:  2
Zero-half cuts applied:  45

Root node processing (before b&c):
  Real time             =    1.75 sec. (1204.90 ticks)
Sequential b&c:
  Real time             =    0.00 sec. (0.00 ticks)
                          ------------
Total (root+branch&cut) =    1.75 sec. (1204.90 ticks)
Solution is feasible.

---------------------
@@@ MIP_optimal
>>> Benchmark mc2024_track1_181.cnf k 5 OPT 1218 TimeCost 4.069546461105347 TimeSolve 1.7723331451416016 TimeRead 0.027921438217163086 TimeTrans 2.269291877746582
